benchmark/results/graph__10-1000-0.10-04_8/graph__10-1000-0.10-04_8_Quinton_Monolithic.lp
\ This file has been generated by DOcplex
\ ENCODING=ISO-8859-1
\Problem name: Quinton Monolithic

Maximize
 obj: tau
Subject To
 c1: tau - 0.001400560224 m_a0_proc_1 - 0.001025641026 m_a0_proc_3 <= 0
 c2: y_a0_proc_1 + y_a0_proc_3 - tau = 0
 c3: m_a0_proc_1 + m_a0_proc_3 = 1
 c4: y_a0_proc_1 - m_a0_proc_1 <= 0
 c5: y_a0_proc_1 >= 0
 c6: y_a0_proc_3 - m_a0_proc_3 <= 0
 c7: y_a0_proc_3 >= 0
 c8: tau - 0.000937207123 m_a1_proc_1 - 0.001052631579 m_a1_proc_3 <= 0
 c9: y_a1_proc_1 + y_a1_proc_3 - tau = 0
 c10: m_a1_proc_1 + m_a1_proc_3 = 1
 c11: y_a1_proc_1 - m_a1_proc_1 <= 0
 c12: y_a1_proc_1 >= 0
 c13: y_a1_proc_3 - m_a1_proc_3 <= 0
 c14: y_a1_proc_3 >= 0
 c15: tau - 0.000791765637 m_a2_proc_1 - 0.000880281690 m_a2_proc_2
      - 0.000783085356 m_a2_proc_3 <= 0
 c16: y_a2_proc_1 + y_a2_proc_2 + y_a2_proc_3 - tau = 0
 c17: m_a2_proc_1 + m_a2_proc_2 + m_a2_proc_3 = 1
 c18: y_a2_proc_1 - m_a2_proc_1 <= 0
 c19: y_a2_proc_1 >= 0
 c20: y_a2_proc_2 - m_a2_proc_2 <= 0
 c21: y_a2_proc_2 >= 0
 c22: y_a2_proc_3 - m_a2_proc_3 <= 0
 c23: y_a2_proc_3 >= 0
 c24: tau - 0.001773049645 m_a3_proc_0 - 0.001064962726 m_a3_proc_2
      - 0.001579778831 m_a3_proc_3 <= 0
 c25: y_a3_proc_0 + y_a3_proc_2 + y_a3_proc_3 - tau = 0
 c26: m_a3_proc_0 + m_a3_proc_2 + m_a3_proc_3 = 1
 c27: y_a3_proc_0 - m_a3_proc_0 <= 0
 c28: y_a3_proc_0 >= 0
 c29: y_a3_proc_2 - m_a3_proc_2 <= 0
 c30: y_a3_proc_2 >= 0
 c31: y_a3_proc_3 - m_a3_proc_3 <= 0
 c32: y_a3_proc_3 >= 0
 c33: tau - 0.001128668172 m_a4_proc_0 - 0.002145922747 m_a4_proc_1
      - 0.001818181818 m_a4_proc_2 - 0.000954198473 m_a4_proc_3 <= 0
 c34: y_a4_proc_0 + y_a4_proc_1 + y_a4_proc_2 + y_a4_proc_3 - tau = 0
 c35: m_a4_proc_0 + m_a4_proc_1 + m_a4_proc_2 + m_a4_proc_3 = 1
 c36: y_a4_proc_0 - m_a4_proc_0 <= 0
 c37: y_a4_proc_0 >= 0
 c38: y_a4_proc_1 - m_a4_proc_1 <= 0
 c39: y_a4_proc_1 >= 0
 c40: y_a4_proc_2 - m_a4_proc_2 <= 0
 c41: y_a4_proc_2 >= 0
 c42: y_a4_proc_3 - m_a4_proc_3 <= 0
 c43: y_a4_proc_3 >= 0
 c44: tau - 0.000891265597 m_a5_proc_1 - 0.001751313485 m_a5_proc_2
      - 0.001136363636 m_a5_proc_3 <= 0
 c45: y_a5_proc_1 + y_a5_proc_2 + y_a5_proc_3 - tau = 0
 c46: m_a5_proc_1 + m_a5_proc_2 + m_a5_proc_3 = 1
 c47: y_a5_proc_1 - m_a5_proc_1 <= 0
 c48: y_a5_proc_1 >= 0
 c49: y_a5_proc_2 - m_a5_proc_2 <= 0
 c50: y_a5_proc_2 >= 0
 c51: y_a5_proc_3 - m_a5_proc_3 <= 0
 c52: y_a5_proc_3 >= 0
 c53: tau - 0.001709401709 m_a6_proc_0 - 0.001349527665 m_a6_proc_1
      - 0.001317523057 m_a6_proc_2 <= 0
 c54: y_a6_proc_0 + y_a6_proc_1 + y_a6_proc_2 - tau = 0
 c55: m_a6_proc_0 + m_a6_proc_1 + m_a6_proc_2 = 1
 c56: y_a6_proc_0 - m_a6_proc_0 <= 0
 c57: y_a6_proc_0 >= 0
 c58: y_a6_proc_1 - m_a6_proc_1 <= 0
 c59: y_a6_proc_1 >= 0
 c60: y_a6_proc_2 - m_a6_proc_2 <= 0
 c61: y_a6_proc_2 >= 0
 c62: tau - 0.000910746812 m_a7_proc_0 - 0.000834724541 m_a7_proc_2
      - 0.000987166831 m_a7_proc_3 <= 0
 c63: y_a7_proc_0 + y_a7_proc_2 + y_a7_proc_3 - tau = 0
 c64: m_a7_proc_0 + m_a7_proc_2 + m_a7_proc_3 = 1
 c65: y_a7_proc_0 - m_a7_proc_0 <= 0
 c66: y_a7_proc_0 >= 0
 c67: y_a7_proc_2 - m_a7_proc_2 <= 0
 c68: y_a7_proc_2 >= 0
 c69: y_a7_proc_3 - m_a7_proc_3 <= 0
 c70: y_a7_proc_3 >= 0
 c71: tau - 0.001250000000 m_a8_proc_0 - 0.000908265213 m_a8_proc_1
      - 0.001057082452 m_a8_proc_2 - 0.001170960187 m_a8_proc_3 <= 0
 c72: y_a8_proc_0 + y_a8_proc_1 + y_a8_proc_2 + y_a8_proc_3 - tau = 0
 c73: m_a8_proc_0 + m_a8_proc_1 + m_a8_proc_2 + m_a8_proc_3 = 1
 c74: y_a8_proc_0 - m_a8_proc_0 <= 0
 c75: y_a8_proc_0 >= 0
 c76: y_a8_proc_1 - m_a8_proc_1 <= 0
 c77: y_a8_proc_1 >= 0
 c78: y_a8_proc_2 - m_a8_proc_2 <= 0
 c79: y_a8_proc_2 >= 0
 c80: y_a8_proc_3 - m_a8_proc_3 <= 0
 c81: y_a8_proc_3 >= 0
 c82: tau - 0.000925069380 m_a9_proc_0 - 0.002433090024 m_a9_proc_2
      - 0.001184834123 m_a9_proc_3 <= 0
 c83: y_a9_proc_0 + y_a9_proc_2 + y_a9_proc_3 - tau = 0
 c84: m_a9_proc_0 + m_a9_proc_2 + m_a9_proc_3 = 1
 c85: y_a9_proc_0 - m_a9_proc_0 <= 0
 c86: y_a9_proc_0 >= 0
 c87: y_a9_proc_2 - m_a9_proc_2 <= 0
 c88: y_a9_proc_2 >= 0
 c89: y_a9_proc_3 - m_a9_proc_3 <= 0
 c90: y_a9_proc_3 >= 0
 c91: u_a0 - u_a1 - 1067 y_a1_proc_1 - 950 y_a1_proc_3 >= -1
 c92: u_a2 - u_a1 - 1067 y_a1_proc_1 - 950 y_a1_proc_3 >= -1
 c93: u_a2 - u_a3 - 564 y_a3_proc_0 - 939 y_a3_proc_2 - 633 y_a3_proc_3 >= 0
 c94: u_a4 - u_a0 - 714 y_a0_proc_1 - 975 y_a0_proc_3 >= 0
 c95: u_a5 - u_a1 - 1067 y_a1_proc_1 - 950 y_a1_proc_3 >= 0
 c96: u_a6 - u_a2 - 1263 y_a2_proc_1 - 1136 y_a2_proc_2 - 1277 y_a2_proc_3 >= 0
 c97: u_a7 - u_a4 - 886 y_a4_proc_0 - 466 y_a4_proc_1 - 550 y_a4_proc_2
      - 1048 y_a4_proc_3 >= 0
 c98: u_a7 - u_a8 - 800 y_a8_proc_0 - 1101 y_a8_proc_1 - 946 y_a8_proc_2
      - 854 y_a8_proc_3 >= 0
 c99: u_a9 - u_a7 - 1098 y_a7_proc_0 - 1198 y_a7_proc_2 - 1013 y_a7_proc_3 >= 0
 c100: u_a3 - u_a5 - 1122 y_a5_proc_1 - 571 y_a5_proc_2 - 880 y_a5_proc_3 >= -1
 c101: u_a4 - u_a2 - 1263 y_a2_proc_1 - 1136 y_a2_proc_2 - 1277 y_a2_proc_3 >= 
       0
 c102: u_a1 - u_a0 - 714 y_a0_proc_1 - 975 y_a0_proc_3 >= 0
 c103: u_a8 - u_a4 - 886 y_a4_proc_0 - 466 y_a4_proc_1 - 550 y_a4_proc_2
       - 1048 y_a4_proc_3 >= 0
 c104: u_a5 - u_a6 - 585 y_a6_proc_0 - 741 y_a6_proc_1 - 759 y_a6_proc_2 >= 0
 c105: u_a1 - u_a9 - 1081 y_a9_proc_0 - 411 y_a9_proc_2 - 844 y_a9_proc_3 >= 0
 c106: u_a6 - u_a3 - 564 y_a3_proc_0 - 939 y_a3_proc_2 - 633 y_a3_proc_3 >= 0
 c107: u_a1 + K_a0_a1 - 1277 m_a0_proc_3 - 1277 m_a1_proc_3 - u_a0
       - 975 y_a0_proc_3 >= -2554
 c108: u_a1 + K_a0_a1 - 1277 m_a0_proc_1 - 1277 m_a1_proc_1 - u_a0
       - 714 y_a0_proc_1 >= -2554
 c109: K_a0_a1 + K_a1_a0 = 1
 c110: u_a0 + K_a1_a0 - 1277 m_a0_proc_3 - 1277 m_a1_proc_3 - u_a1
       - 950 y_a1_proc_3 >= -2554
 c111: u_a0 + K_a1_a0 - 1277 m_a0_proc_1 - 1277 m_a1_proc_1 - u_a1
       - 1067 y_a1_proc_1 >= -2554
 c112: K_a0_a1 + K_a1_a0 = 1
 c113: u_a2 + K_a0_a2 - 1277 m_a0_proc_3 - 1277 m_a2_proc_3 - u_a0
       - 975 y_a0_proc_3 >= -2554
 c114: u_a2 + K_a0_a2 - 1277 m_a0_proc_1 - 1277 m_a2_proc_1 - u_a0
       - 714 y_a0_proc_1 >= -2554
 c115: K_a0_a2 + K_a2_a0 = 1
 c116: u_a0 + K_a2_a0 - 1277 m_a0_proc_3 - 1277 m_a2_proc_3 - u_a2
       - 1277 y_a2_proc_3 >= -2554
 c117: u_a0 + K_a2_a0 - 1277 m_a0_proc_1 - 1277 m_a2_proc_1 - u_a2
       - 1263 y_a2_proc_1 >= -2554
 c118: K_a0_a2 + K_a2_a0 = 1
 c119: u_a3 + K_a0_a3 - 1277 m_a0_proc_3 - 1277 m_a3_proc_3 - u_a0
       - 975 y_a0_proc_3 >= -2554
 c120: K_a0_a3 + K_a3_a0 = 1
 c121: u_a0 + K_a3_a0 - 1277 m_a0_proc_3 - 1277 m_a3_proc_3 - u_a3
       - 633 y_a3_proc_3 >= -2554
 c122: K_a0_a3 + K_a3_a0 = 1
 c123: u_a4 + K_a0_a4 - 1277 m_a0_proc_3 - 1277 m_a4_proc_3 - u_a0
       - 975 y_a0_proc_3 >= -2554
 c124: u_a4 + K_a0_a4 - 1277 m_a0_proc_1 - 1277 m_a4_proc_1 - u_a0
       - 714 y_a0_proc_1 >= -2554
 c125: K_a0_a4 + K_a4_a0 = 1
 c126: u_a0 + K_a4_a0 - 1277 m_a0_proc_3 - 1277 m_a4_proc_3 - u_a4
       - 1048 y_a4_proc_3 >= -2554
 c127: u_a0 + K_a4_a0 - 1277 m_a0_proc_1 - 1277 m_a4_proc_1 - u_a4
       - 466 y_a4_proc_1 >= -2554
 c128: K_a0_a4 + K_a4_a0 = 1
 c129: u_a5 + K_a0_a5 - 1277 m_a0_proc_3 - 1277 m_a5_proc_3 - u_a0
       - 975 y_a0_proc_3 >= -2554
 c130: u_a5 + K_a0_a5 - 1277 m_a0_proc_1 - 1277 m_a5_proc_1 - u_a0
       - 714 y_a0_proc_1 >= -2554
 c131: K_a0_a5 + K_a5_a0 = 1
 c132: u_a0 + K_a5_a0 - 1277 m_a0_proc_3 - 1277 m_a5_proc_3 - u_a5
       - 880 y_a5_proc_3 >= -2554
 c133: u_a0 + K_a5_a0 - 1277 m_a0_proc_1 - 1277 m_a5_proc_1 - u_a5
       - 1122 y_a5_proc_1 >= -2554
 c134: K_a0_a5 + K_a5_a0 = 1
 c135: u_a6 + K_a0_a6 - 1277 m_a0_proc_1 - 1277 m_a6_proc_1 - u_a0
       - 714 y_a0_proc_1 >= -2554
 c136: K_a0_a6 + K_a6_a0 = 1
 c137: u_a0 + K_a6_a0 - 1277 m_a0_proc_1 - 1277 m_a6_proc_1 - u_a6
       - 741 y_a6_proc_1 >= -2554
 c138: K_a0_a6 + K_a6_a0 = 1
 c139: u_a7 + K_a0_a7 - 1277 m_a0_proc_3 - 1277 m_a7_proc_3 - u_a0
       - 975 y_a0_proc_3 >= -2554
 c140: K_a0_a7 + K_a7_a0 = 1
 c141: u_a0 + K_a7_a0 - 1277 m_a0_proc_3 - 1277 m_a7_proc_3 - u_a7
       - 1013 y_a7_proc_3 >= -2554
 c142: K_a0_a7 + K_a7_a0 = 1
 c143: u_a8 + K_a0_a8 - 1277 m_a0_proc_3 - 1277 m_a8_proc_3 - u_a0
       - 975 y_a0_proc_3 >= -2554
 c144: u_a8 + K_a0_a8 - 1277 m_a0_proc_1 - 1277 m_a8_proc_1 - u_a0
       - 714 y_a0_proc_1 >= -2554
 c145: K_a0_a8 + K_a8_a0 = 1
 c146: u_a0 + K_a8_a0 - 1277 m_a0_proc_3 - 1277 m_a8_proc_3 - u_a8
       - 854 y_a8_proc_3 >= -2554
 c147: u_a0 + K_a8_a0 - 1277 m_a0_proc_1 - 1277 m_a8_proc_1 - u_a8
       - 1101 y_a8_proc_1 >= -2554
 c148: K_a0_a8 + K_a8_a0 = 1
 c149: u_a9 + K_a0_a9 - 1277 m_a0_proc_3 - 1277 m_a9_proc_3 - u_a0
       - 975 y_a0_proc_3 >= -2554
 c150: K_a0_a9 + K_a9_a0 = 1
 c151: u_a0 + K_a9_a0 - 1277 m_a0_proc_3 - 1277 m_a9_proc_3 - u_a9
       - 844 y_a9_proc_3 >= -2554
 c152: K_a0_a9 + K_a9_a0 = 1
 c153: u_a2 + K_a1_a2 - 1277 m_a1_proc_3 - 1277 m_a2_proc_3 - u_a1
       - 950 y_a1_proc_3 >= -2554
 c154: u_a2 + K_a1_a2 - 1277 m_a1_proc_1 - 1277 m_a2_proc_1 - u_a1
       - 1067 y_a1_proc_1 >= -2554
 c155: K_a1_a2 + K_a2_a1 = 1
 c156: u_a1 + K_a2_a1 - 1277 m_a1_proc_3 - 1277 m_a2_proc_3 - u_a2
       - 1277 y_a2_proc_3 >= -2554
 c157: u_a1 + K_a2_a1 - 1277 m_a1_proc_1 - 1277 m_a2_proc_1 - u_a2
       - 1263 y_a2_proc_1 >= -2554
 c158: K_a1_a2 + K_a2_a1 = 1
 c159: u_a3 + K_a1_a3 - 1277 m_a1_proc_3 - 1277 m_a3_proc_3 - u_a1
       - 950 y_a1_proc_3 >= -2554
 c160: K_a1_a3 + K_a3_a1 = 1
 c161: u_a1 + K_a3_a1 - 1277 m_a1_proc_3 - 1277 m_a3_proc_3 - u_a3
       - 633 y_a3_proc_3 >= -2554
 c162: K_a1_a3 + K_a3_a1 = 1
 c163: u_a4 + K_a1_a4 - 1277 m_a1_proc_3 - 1277 m_a4_proc_3 - u_a1
       - 950 y_a1_proc_3 >= -2554
 c164: u_a4 + K_a1_a4 - 1277 m_a1_proc_1 - 1277 m_a4_proc_1 - u_a1
       - 1067 y_a1_proc_1 >= -2554
 c165: K_a1_a4 + K_a4_a1 = 1
 c166: u_a1 + K_a4_a1 - 1277 m_a1_proc_3 - 1277 m_a4_proc_3 - u_a4
       - 1048 y_a4_proc_3 >= -2554
 c167: u_a1 + K_a4_a1 - 1277 m_a1_proc_1 - 1277 m_a4_proc_1 - u_a4
       - 466 y_a4_proc_1 >= -2554
 c168: K_a1_a4 + K_a4_a1 = 1
 c169: u_a5 + K_a1_a5 - 1277 m_a1_proc_3 - 1277 m_a5_proc_3 - u_a1
       - 950 y_a1_proc_3 >= -2554
 c170: u_a5 + K_a1_a5 - 1277 m_a1_proc_1 - 1277 m_a5_proc_1 - u_a1
       - 1067 y_a1_proc_1 >= -2554
 c171: K_a1_a5 + K_a5_a1 = 1
 c172: u_a1 + K_a5_a1 - 1277 m_a1_proc_3 - 1277 m_a5_proc_3 - u_a5
       - 880 y_a5_proc_3 >= -2554
 c173: u_a1 + K_a5_a1 - 1277 m_a1_proc_1 - 1277 m_a5_proc_1 - u_a5
       - 1122 y_a5_proc_1 >= -2554
 c174: K_a1_a5 + K_a5_a1 = 1
 c175: u_a6 + K_a1_a6 - 1277 m_a1_proc_1 - 1277 m_a6_proc_1 - u_a1
       - 1067 y_a1_proc_1 >= -2554
 c176: K_a1_a6 + K_a6_a1 = 1
 c177: u_a1 + K_a6_a1 - 1277 m_a1_proc_1 - 1277 m_a6_proc_1 - u_a6
       - 741 y_a6_proc_1 >= -2554
 c178: K_a1_a6 + K_a6_a1 = 1
 c179: u_a7 + K_a1_a7 - 1277 m_a1_proc_3 - 1277 m_a7_proc_3 - u_a1
       - 950 y_a1_proc_3 >= -2554
 c180: K_a1_a7 + K_a7_a1 = 1
 c181: u_a1 + K_a7_a1 - 1277 m_a1_proc_3 - 1277 m_a7_proc_3 - u_a7
       - 1013 y_a7_proc_3 >= -2554
 c182: K_a1_a7 + K_a7_a1 = 1
 c183: u_a8 + K_a1_a8 - 1277 m_a1_proc_3 - 1277 m_a8_proc_3 - u_a1
       - 950 y_a1_proc_3 >= -2554
 c184: u_a8 + K_a1_a8 - 1277 m_a1_proc_1 - 1277 m_a8_proc_1 - u_a1
       - 1067 y_a1_proc_1 >= -2554
 c185: K_a1_a8 + K_a8_a1 = 1
 c186: u_a1 + K_a8_a1 - 1277 m_a1_proc_3 - 1277 m_a8_proc_3 - u_a8
       - 854 y_a8_proc_3 >= -2554
 c187: u_a1 + K_a8_a1 - 1277 m_a1_proc_1 - 1277 m_a8_proc_1 - u_a8
       - 1101 y_a8_proc_1 >= -2554
 c188: K_a1_a8 + K_a8_a1 = 1
 c189: u_a9 + K_a1_a9 - 1277 m_a1_proc_3 - 1277 m_a9_proc_3 - u_a1
       - 950 y_a1_proc_3 >= -2554
 c190: K_a1_a9 + K_a9_a1 = 1
 c191: u_a1 + K_a9_a1 - 1277 m_a1_proc_3 - 1277 m_a9_proc_3 - u_a9
       - 844 y_a9_proc_3 >= -2554
 c192: K_a1_a9 + K_a9_a1 = 1
 c193: u_a3 + K_a2_a3 - 1277 m_a2_proc_2 - 1277 m_a3_proc_2 - u_a2
       - 1136 y_a2_proc_2 >= -2554
 c194: u_a3 + K_a2_a3 - 1277 m_a2_proc_3 - 1277 m_a3_proc_3 - u_a2
       - 1277 y_a2_proc_3 >= -2554
 c195: K_a2_a3 + K_a3_a2 = 1
 c196: u_a2 + K_a3_a2 - 1277 m_a2_proc_2 - 1277 m_a3_proc_2 - u_a3
       - 939 y_a3_proc_2 >= -2554
 c197: u_a2 + K_a3_a2 - 1277 m_a2_proc_3 - 1277 m_a3_proc_3 - u_a3
       - 633 y_a3_proc_3 >= -2554
 c198: K_a2_a3 + K_a3_a2 = 1
 c199: u_a4 + K_a2_a4 - 1277 m_a2_proc_2 - 1277 m_a4_proc_2 - u_a2
       - 1136 y_a2_proc_2 >= -2554
 c200: u_a4 + K_a2_a4 - 1277 m_a2_proc_3 - 1277 m_a4_proc_3 - u_a2
       - 1277 y_a2_proc_3 >= -2554
 c201: u_a4 + K_a2_a4 - 1277 m_a2_proc_1 - 1277 m_a4_proc_1 - u_a2
       - 1263 y_a2_proc_1 >= -2554
 c202: K_a2_a4 + K_a4_a2 = 1
 c203: u_a2 + K_a4_a2 - 1277 m_a2_proc_2 - 1277 m_a4_proc_2 - u_a4
       - 550 y_a4_proc_2 >= -2554
 c204: u_a2 + K_a4_a2 - 1277 m_a2_proc_3 - 1277 m_a4_proc_3 - u_a4
       - 1048 y_a4_proc_3 >= -2554
 c205: u_a2 + K_a4_a2 - 1277 m_a2_proc_1 - 1277 m_a4_proc_1 - u_a4
       - 466 y_a4_proc_1 >= -2554
 c206: K_a2_a4 + K_a4_a2 = 1
 c207: u_a5 + K_a2_a5 - 1277 m_a2_proc_2 - 1277 m_a5_proc_2 - u_a2
       - 1136 y_a2_proc_2 >= -2554
 c208: u_a5 + K_a2_a5 - 1277 m_a2_proc_3 - 1277 m_a5_proc_3 - u_a2
       - 1277 y_a2_proc_3 >= -2554
 c209: u_a5 + K_a2_a5 - 1277 m_a2_proc_1 - 1277 m_a5_proc_1 - u_a2
       - 1263 y_a2_proc_1 >= -2554
 c210: K_a2_a5 + K_a5_a2 = 1
 c211: u_a2 + K_a5_a2 - 1277 m_a2_proc_2 - 1277 m_a5_proc_2 - u_a5
       - 571 y_a5_proc_2 >= -2554
 c212: u_a2 + K_a5_a2 - 1277 m_a2_proc_3 - 1277 m_a5_proc_3 - u_a5
       - 880 y_a5_proc_3 >= -2554
 c213: u_a2 + K_a5_a2 - 1277 m_a2_proc_1 - 1277 m_a5_proc_1 - u_a5
       - 1122 y_a5_proc_1 >= -2554
 c214: K_a2_a5 + K_a5_a2 = 1
 c215: u_a6 + K_a2_a6 - 1277 m_a2_proc_2 - 1277 m_a6_proc_2 - u_a2
       - 1136 y_a2_proc_2 >= -2554
 c216: u_a6 + K_a2_a6 - 1277 m_a2_proc_1 - 1277 m_a6_proc_1 - u_a2
       - 1263 y_a2_proc_1 >= -2554
 c217: K_a2_a6 + K_a6_a2 = 1
 c218: u_a2 + K_a6_a2 - 1277 m_a2_proc_2 - 1277 m_a6_proc_2 - u_a6
       - 759 y_a6_proc_2 >= -2554
 c219: u_a2 + K_a6_a2 - 1277 m_a2_proc_1 - 1277 m_a6_proc_1 - u_a6
       - 741 y_a6_proc_1 >= -2554
 c220: K_a2_a6 + K_a6_a2 = 1
 c221: u_a7 + K_a2_a7 - 1277 m_a2_proc_2 - 1277 m_a7_proc_2 - u_a2
       - 1136 y_a2_proc_2 >= -2554
 c222: u_a7 + K_a2_a7 - 1277 m_a2_proc_3 - 1277 m_a7_proc_3 - u_a2
       - 1277 y_a2_proc_3 >= -2554
 c223: K_a2_a7 + K_a7_a2 = 1
 c224: u_a2 + K_a7_a2 - 1277 m_a2_proc_2 - 1277 m_a7_proc_2 - u_a7
       - 1198 y_a7_proc_2 >= -2554
 c225: u_a2 + K_a7_a2 - 1277 m_a2_proc_3 - 1277 m_a7_proc_3 - u_a7
       - 1013 y_a7_proc_3 >= -2554
 c226: K_a2_a7 + K_a7_a2 = 1
 c227: u_a8 + K_a2_a8 - 1277 m_a2_proc_2 - 1277 m_a8_proc_2 - u_a2
       - 1136 y_a2_proc_2 >= -2554
 c228: u_a8 + K_a2_a8 - 1277 m_a2_proc_3 - 1277 m_a8_proc_3 - u_a2
       - 1277 y_a2_proc_3 >= -2554
 c229: u_a8 + K_a2_a8 - 1277 m_a2_proc_1 - 1277 m_a8_proc_1 - u_a2
       - 1263 y_a2_proc_1 >= -2554
 c230: K_a2_a8 + K_a8_a2 = 1
 c231: u_a2 + K_a8_a2 - 1277 m_a2_proc_2 - 1277 m_a8_proc_2 - u_a8
       - 946 y_a8_proc_2 >= -2554
 c232: u_a2 + K_a8_a2 - 1277 m_a2_proc_3 - 1277 m_a8_proc_3 - u_a8
       - 854 y_a8_proc_3 >= -2554
 c233: u_a2 + K_a8_a2 - 1277 m_a2_proc_1 - 1277 m_a8_proc_1 - u_a8
       - 1101 y_a8_proc_1 >= -2554
 c234: K_a2_a8 + K_a8_a2 = 1
 c235: u_a9 + K_a2_a9 - 1277 m_a2_proc_2 - 1277 m_a9_proc_2 - u_a2
       - 1136 y_a2_proc_2 >= -2554
 c236: u_a9 + K_a2_a9 - 1277 m_a2_proc_3 - 1277 m_a9_proc_3 - u_a2
       - 1277 y_a2_proc_3 >= -2554
 c237: K_a2_a9 + K_a9_a2 = 1
 c238: u_a2 + K_a9_a2 - 1277 m_a2_proc_2 - 1277 m_a9_proc_2 - u_a9
       - 411 y_a9_proc_2 >= -2554
 c239: u_a2 + K_a9_a2 - 1277 m_a2_proc_3 - 1277 m_a9_proc_3 - u_a9
       - 844 y_a9_proc_3 >= -2554
 c240: K_a2_a9 + K_a9_a2 = 1
 c241: u_a4 + K_a3_a4 - 1277 m_a3_proc_2 - 1277 m_a4_proc_2 - u_a3
       - 939 y_a3_proc_2 >= -2554
 c242: u_a4 + K_a3_a4 - 1277 m_a3_proc_3 - 1277 m_a4_proc_3 - u_a3
       - 633 y_a3_proc_3 >= -2554
 c243: u_a4 + K_a3_a4 - 1277 m_a3_proc_0 - 1277 m_a4_proc_0 - u_a3
       - 564 y_a3_proc_0 >= -2554
 c244: K_a3_a4 + K_a4_a3 = 1
 c245: u_a3 + K_a4_a3 - 1277 m_a3_proc_2 - 1277 m_a4_proc_2 - u_a4
       - 550 y_a4_proc_2 >= -2554
 c246: u_a3 + K_a4_a3 - 1277 m_a3_proc_3 - 1277 m_a4_proc_3 - u_a4
       - 1048 y_a4_proc_3 >= -2554
 c247: u_a3 + K_a4_a3 - 1277 m_a3_proc_0 - 1277 m_a4_proc_0 - u_a4
       - 886 y_a4_proc_0 >= -2554
 c248: K_a3_a4 + K_a4_a3 = 1
 c249: u_a5 + K_a3_a5 - 1277 m_a3_proc_2 - 1277 m_a5_proc_2 - u_a3
       - 939 y_a3_proc_2 >= -2554
 c250: u_a5 + K_a3_a5 - 1277 m_a3_proc_3 - 1277 m_a5_proc_3 - u_a3
       - 633 y_a3_proc_3 >= -2554
 c251: K_a3_a5 + K_a5_a3 = 1
 c252: u_a3 + K_a5_a3 - 1277 m_a3_proc_2 - 1277 m_a5_proc_2 - u_a5
       - 571 y_a5_proc_2 >= -2554
 c253: u_a3 + K_a5_a3 - 1277 m_a3_proc_3 - 1277 m_a5_proc_3 - u_a5
       - 880 y_a5_proc_3 >= -2554
 c254: K_a3_a5 + K_a5_a3 = 1
 c255: u_a6 + K_a3_a6 - 1277 m_a3_proc_2 - 1277 m_a6_proc_2 - u_a3
       - 939 y_a3_proc_2 >= -2554
 c256: u_a6 + K_a3_a6 - 1277 m_a3_proc_0 - 1277 m_a6_proc_0 - u_a3
       - 564 y_a3_proc_0 >= -2554
 c257: K_a3_a6 + K_a6_a3 = 1
 c258: u_a3 + K_a6_a3 - 1277 m_a3_proc_2 - 1277 m_a6_proc_2 - u_a6
       - 759 y_a6_proc_2 >= -2554
 c259: u_a3 + K_a6_a3 - 1277 m_a3_proc_0 - 1277 m_a6_proc_0 - u_a6
       - 585 y_a6_proc_0 >= -2554
 c260: K_a3_a6 + K_a6_a3 = 1
 c261: u_a7 + K_a3_a7 - 1277 m_a3_proc_2 - 1277 m_a7_proc_2 - u_a3
       - 939 y_a3_proc_2 >= -2554
 c262: u_a7 + K_a3_a7 - 1277 m_a3_proc_3 - 1277 m_a7_proc_3 - u_a3
       - 633 y_a3_proc_3 >= -2554
 c263: u_a7 + K_a3_a7 - 1277 m_a3_proc_0 - 1277 m_a7_proc_0 - u_a3
       - 564 y_a3_proc_0 >= -2554
 c264: K_a3_a7 + K_a7_a3 = 1
 c265: u_a3 + K_a7_a3 - 1277 m_a3_proc_2 - 1277 m_a7_proc_2 - u_a7
       - 1198 y_a7_proc_2 >= -2554
 c266: u_a3 + K_a7_a3 - 1277 m_a3_proc_3 - 1277 m_a7_proc_3 - u_a7
       - 1013 y_a7_proc_3 >= -2554
 c267: u_a3 + K_a7_a3 - 1277 m_a3_proc_0 - 1277 m_a7_proc_0 - u_a7
       - 1098 y_a7_proc_0 >= -2554
 c268: K_a3_a7 + K_a7_a3 = 1
 c269: u_a8 + K_a3_a8 - 1277 m_a3_proc_2 - 1277 m_a8_proc_2 - u_a3
       - 939 y_a3_proc_2 >= -2554
 c270: u_a8 + K_a3_a8 - 1277 m_a3_proc_3 - 1277 m_a8_proc_3 - u_a3
       - 633 y_a3_proc_3 >= -2554
 c271: u_a8 + K_a3_a8 - 1277 m_a3_proc_0 - 1277 m_a8_proc_0 - u_a3
       - 564 y_a3_proc_0 >= -2554
 c272: K_a3_a8 + K_a8_a3 = 1
 c273: u_a3 + K_a8_a3 - 1277 m_a3_proc_2 - 1277 m_a8_proc_2 - u_a8
       - 946 y_a8_proc_2 >= -2554
 c274: u_a3 + K_a8_a3 - 1277 m_a3_proc_3 - 1277 m_a8_proc_3 - u_a8
       - 854 y_a8_proc_3 >= -2554
 c275: u_a3 + K_a8_a3 - 1277 m_a3_proc_0 - 1277 m_a8_proc_0 - u_a8
       - 800 y_a8_proc_0 >= -2554
 c276: K_a3_a8 + K_a8_a3 = 1
 c277: u_a9 + K_a3_a9 - 1277 m_a3_proc_2 - 1277 m_a9_proc_2 - u_a3
       - 939 y_a3_proc_2 >= -2554
 c278: u_a9 + K_a3_a9 - 1277 m_a3_proc_3 - 1277 m_a9_proc_3 - u_a3
       - 633 y_a3_proc_3 >= -2554
 c279: u_a9 + K_a3_a9 - 1277 m_a3_proc_0 - 1277 m_a9_proc_0 - u_a3
       - 564 y_a3_proc_0 >= -2554
 c280: K_a3_a9 + K_a9_a3 = 1
 c281: u_a3 + K_a9_a3 - 1277 m_a3_proc_2 - 1277 m_a9_proc_2 - u_a9
       - 411 y_a9_proc_2 >= -2554
 c282: u_a3 + K_a9_a3 - 1277 m_a3_proc_3 - 1277 m_a9_proc_3 - u_a9
       - 844 y_a9_proc_3 >= -2554
 c283: u_a3 + K_a9_a3 - 1277 m_a3_proc_0 - 1277 m_a9_proc_0 - u_a9
       - 1081 y_a9_proc_0 >= -2554
 c284: K_a3_a9 + K_a9_a3 = 1
 c285: u_a5 + K_a4_a5 - 1277 m_a4_proc_2 - 1277 m_a5_proc_2 - u_a4
       - 550 y_a4_proc_2 >= -2554
 c286: u_a5 + K_a4_a5 - 1277 m_a4_proc_3 - 1277 m_a5_proc_3 - u_a4
       - 1048 y_a4_proc_3 >= -2554
 c287: u_a5 + K_a4_a5 - 1277 m_a4_proc_1 - 1277 m_a5_proc_1 - u_a4
       - 466 y_a4_proc_1 >= -2554
 c288: K_a4_a5 + K_a5_a4 = 1
 c289: u_a4 + K_a5_a4 - 1277 m_a4_proc_2 - 1277 m_a5_proc_2 - u_a5
       - 571 y_a5_proc_2 >= -2554
 c290: u_a4 + K_a5_a4 - 1277 m_a4_proc_3 - 1277 m_a5_proc_3 - u_a5
       - 880 y_a5_proc_3 >= -2554
 c291: u_a4 + K_a5_a4 - 1277 m_a4_proc_1 - 1277 m_a5_proc_1 - u_a5
       - 1122 y_a5_proc_1 >= -2554
 c292: K_a4_a5 + K_a5_a4 = 1
 c293: u_a6 + K_a4_a6 - 1277 m_a4_proc_2 - 1277 m_a6_proc_2 - u_a4
       - 550 y_a4_proc_2 >= -2554
 c294: u_a6 + K_a4_a6 - 1277 m_a4_proc_0 - 1277 m_a6_proc_0 - u_a4
       - 886 y_a4_proc_0 >= -2554
 c295: u_a6 + K_a4_a6 - 1277 m_a4_proc_1 - 1277 m_a6_proc_1 - u_a4
       - 466 y_a4_proc_1 >= -2554
 c296: K_a4_a6 + K_a6_a4 = 1
 c297: u_a4 + K_a6_a4 - 1277 m_a4_proc_2 - 1277 m_a6_proc_2 - u_a6
       - 759 y_a6_proc_2 >= -2554
 c298: u_a4 + K_a6_a4 - 1277 m_a4_proc_0 - 1277 m_a6_proc_0 - u_a6
       - 585 y_a6_proc_0 >= -2554
 c299: u_a4 + K_a6_a4 - 1277 m_a4_proc_1 - 1277 m_a6_proc_1 - u_a6
       - 741 y_a6_proc_1 >= -2554
 c300: K_a4_a6 + K_a6_a4 = 1
 c301: u_a7 + K_a4_a7 - 1277 m_a4_proc_2 - 1277 m_a7_proc_2 - u_a4
       - 550 y_a4_proc_2 >= -2554
 c302: u_a7 + K_a4_a7 - 1277 m_a4_proc_3 - 1277 m_a7_proc_3 - u_a4
       - 1048 y_a4_proc_3 >= -2554
 c303: u_a7 + K_a4_a7 - 1277 m_a4_proc_0 - 1277 m_a7_proc_0 - u_a4
       - 886 y_a4_proc_0 >= -2554
 c304: K_a4_a7 + K_a7_a4 = 1
 c305: u_a4 + K_a7_a4 - 1277 m_a4_proc_2 - 1277 m_a7_proc_2 - u_a7
       - 1198 y_a7_proc_2 >= -2554
 c306: u_a4 + K_a7_a4 - 1277 m_a4_proc_3 - 1277 m_a7_proc_3 - u_a7
       - 1013 y_a7_proc_3 >= -2554
 c307: u_a4 + K_a7_a4 - 1277 m_a4_proc_0 - 1277 m_a7_proc_0 - u_a7
       - 1098 y_a7_proc_0 >= -2554
 c308: K_a4_a7 + K_a7_a4 = 1
 c309: u_a8 + K_a4_a8 - 1277 m_a4_proc_2 - 1277 m_a8_proc_2 - u_a4
       - 550 y_a4_proc_2 >= -2554
 c310: u_a8 + K_a4_a8 - 1277 m_a4_proc_3 - 1277 m_a8_proc_3 - u_a4
       - 1048 y_a4_proc_3 >= -2554
 c311: u_a8 + K_a4_a8 - 1277 m_a4_proc_0 - 1277 m_a8_proc_0 - u_a4
       - 886 y_a4_proc_0 >= -2554
 c312: u_a8 + K_a4_a8 - 1277 m_a4_proc_1 - 1277 m_a8_proc_1 - u_a4
       - 466 y_a4_proc_1 >= -2554
 c313: K_a4_a8 + K_a8_a4 = 1
 c314: u_a4 + K_a8_a4 - 1277 m_a4_proc_2 - 1277 m_a8_proc_2 - u_a8
       - 946 y_a8_proc_2 >= -2554
 c315: u_a4 + K_a8_a4 - 1277 m_a4_proc_3 - 1277 m_a8_proc_3 - u_a8
       - 854 y_a8_proc_3 >= -2554
 c316: u_a4 + K_a8_a4 - 1277 m_a4_proc_0 - 1277 m_a8_proc_0 - u_a8
       - 800 y_a8_proc_0 >= -2554
 c317: u_a4 + K_a8_a4 - 1277 m_a4_proc_1 - 1277 m_a8_proc_1 - u_a8
       - 1101 y_a8_proc_1 >= -2554
 c318: K_a4_a8 + K_a8_a4 = 1
 c319: u_a9 + K_a4_a9 - 1277 m_a4_proc_2 - 1277 m_a9_proc_2 - u_a4
       - 550 y_a4_proc_2 >= -2554
 c320: u_a9 + K_a4_a9 - 1277 m_a4_proc_3 - 1277 m_a9_proc_3 - u_a4
       - 1048 y_a4_proc_3 >= -2554
 c321: u_a9 + K_a4_a9 - 1277 m_a4_proc_0 - 1277 m_a9_proc_0 - u_a4
       - 886 y_a4_proc_0 >= -2554
 c322: K_a4_a9 + K_a9_a4 = 1
 c323: u_a4 + K_a9_a4 - 1277 m_a4_proc_2 - 1277 m_a9_proc_2 - u_a9
       - 411 y_a9_proc_2 >= -2554
 c324: u_a4 + K_a9_a4 - 1277 m_a4_proc_3 - 1277 m_a9_proc_3 - u_a9
       - 844 y_a9_proc_3 >= -2554
 c325: u_a4 + K_a9_a4 - 1277 m_a4_proc_0 - 1277 m_a9_proc_0 - u_a9
       - 1081 y_a9_proc_0 >= -2554
 c326: K_a4_a9 + K_a9_a4 = 1
 c327: u_a6 + K_a5_a6 - 1277 m_a5_proc_2 - 1277 m_a6_proc_2 - u_a5
       - 571 y_a5_proc_2 >= -2554
 c328: u_a6 + K_a5_a6 - 1277 m_a5_proc_1 - 1277 m_a6_proc_1 - u_a5
       - 1122 y_a5_proc_1 >= -2554
 c329: K_a5_a6 + K_a6_a5 = 1
 c330: u_a5 + K_a6_a5 - 1277 m_a5_proc_2 - 1277 m_a6_proc_2 - u_a6
       - 759 y_a6_proc_2 >= -2554
 c331: u_a5 + K_a6_a5 - 1277 m_a5_proc_1 - 1277 m_a6_proc_1 - u_a6
       - 741 y_a6_proc_1 >= -2554
 c332: K_a5_a6 + K_a6_a5 = 1
 c333: u_a7 + K_a5_a7 - 1277 m_a5_proc_2 - 1277 m_a7_proc_2 - u_a5
       - 571 y_a5_proc_2 >= -2554
 c334: u_a7 + K_a5_a7 - 1277 m_a5_proc_3 - 1277 m_a7_proc_3 - u_a5
       - 880 y_a5_proc_3 >= -2554
 c335: K_a5_a7 + K_a7_a5 = 1
 c336: u_a5 + K_a7_a5 - 1277 m_a5_proc_2 - 1277 m_a7_proc_2 - u_a7
       - 1198 y_a7_proc_2 >= -2554
 c337: u_a5 + K_a7_a5 - 1277 m_a5_proc_3 - 1277 m_a7_proc_3 - u_a7
       - 1013 y_a7_proc_3 >= -2554
 c338: K_a5_a7 + K_a7_a5 = 1
 c339: u_a8 + K_a5_a8 - 1277 m_a5_proc_2 - 1277 m_a8_proc_2 - u_a5
       - 571 y_a5_proc_2 >= -2554
 c340: u_a8 + K_a5_a8 - 1277 m_a5_proc_3 - 1277 m_a8_proc_3 - u_a5
       - 880 y_a5_proc_3 >= -2554
 c341: u_a8 + K_a5_a8 - 1277 m_a5_proc_1 - 1277 m_a8_proc_1 - u_a5
       - 1122 y_a5_proc_1 >= -2554
 c342: K_a5_a8 + K_a8_a5 = 1
 c343: u_a5 + K_a8_a5 - 1277 m_a5_proc_2 - 1277 m_a8_proc_2 - u_a8
       - 946 y_a8_proc_2 >= -2554
 c344: u_a5 + K_a8_a5 - 1277 m_a5_proc_3 - 1277 m_a8_proc_3 - u_a8
       - 854 y_a8_proc_3 >= -2554
 c345: u_a5 + K_a8_a5 - 1277 m_a5_proc_1 - 1277 m_a8_proc_1 - u_a8
       - 1101 y_a8_proc_1 >= -2554
 c346: K_a5_a8 + K_a8_a5 = 1
 c347: u_a9 + K_a5_a9 - 1277 m_a5_proc_2 - 1277 m_a9_proc_2 - u_a5
       - 571 y_a5_proc_2 >= -2554
 c348: u_a9 + K_a5_a9 - 1277 m_a5_proc_3 - 1277 m_a9_proc_3 - u_a5
       - 880 y_a5_proc_3 >= -2554
 c349: K_a5_a9 + K_a9_a5 = 1
 c350: u_a5 + K_a9_a5 - 1277 m_a5_proc_2 - 1277 m_a9_proc_2 - u_a9
       - 411 y_a9_proc_2 >= -2554
 c351: u_a5 + K_a9_a5 - 1277 m_a5_proc_3 - 1277 m_a9_proc_3 - u_a9
       - 844 y_a9_proc_3 >= -2554
 c352: K_a5_a9 + K_a9_a5 = 1
 c353: u_a7 + K_a6_a7 - 1277 m_a6_proc_2 - 1277 m_a7_proc_2 - u_a6
       - 759 y_a6_proc_2 >= -2554
 c354: u_a7 + K_a6_a7 - 1277 m_a6_proc_0 - 1277 m_a7_proc_0 - u_a6
       - 585 y_a6_proc_0 >= -2554
 c355: K_a6_a7 + K_a7_a6 = 1
 c356: u_a6 + K_a7_a6 - 1277 m_a6_proc_2 - 1277 m_a7_proc_2 - u_a7
       - 1198 y_a7_proc_2 >= -2554
 c357: u_a6 + K_a7_a6 - 1277 m_a6_proc_0 - 1277 m_a7_proc_0 - u_a7
       - 1098 y_a7_proc_0 >= -2554
 c358: K_a6_a7 + K_a7_a6 = 1
 c359: u_a8 + K_a6_a8 - 1277 m_a6_proc_2 - 1277 m_a8_proc_2 - u_a6
       - 759 y_a6_proc_2 >= -2554
 c360: u_a8 + K_a6_a8 - 1277 m_a6_proc_0 - 1277 m_a8_proc_0 - u_a6
       - 585 y_a6_proc_0 >= -2554
 c361: u_a8 + K_a6_a8 - 1277 m_a6_proc_1 - 1277 m_a8_proc_1 - u_a6
       - 741 y_a6_proc_1 >= -2554
 c362: K_a6_a8 + K_a8_a6 = 1
 c363: u_a6 + K_a8_a6 - 1277 m_a6_proc_2 - 1277 m_a8_proc_2 - u_a8
       - 946 y_a8_proc_2 >= -2554
 c364: u_a6 + K_a8_a6 - 1277 m_a6_proc_0 - 1277 m_a8_proc_0 - u_a8
       - 800 y_a8_proc_0 >= -2554
 c365: u_a6 + K_a8_a6 - 1277 m_a6_proc_1 - 1277 m_a8_proc_1 - u_a8
       - 1101 y_a8_proc_1 >= -2554
 c366: K_a6_a8 + K_a8_a6 = 1
 c367: u_a9 + K_a6_a9 - 1277 m_a6_proc_2 - 1277 m_a9_proc_2 - u_a6
       - 759 y_a6_proc_2 >= -2554
 c368: u_a9 + K_a6_a9 - 1277 m_a6_proc_0 - 1277 m_a9_proc_0 - u_a6
       - 585 y_a6_proc_0 >= -2554
 c369: K_a6_a9 + K_a9_a6 = 1
 c370: u_a6 + K_a9_a6 - 1277 m_a6_proc_2 - 1277 m_a9_proc_2 - u_a9
       - 411 y_a9_proc_2 >= -2554
 c371: u_a6 + K_a9_a6 - 1277 m_a6_proc_0 - 1277 m_a9_proc_0 - u_a9
       - 1081 y_a9_proc_0 >= -2554
 c372: K_a6_a9 + K_a9_a6 = 1
 c373: u_a8 + K_a7_a8 - 1277 m_a7_proc_2 - 1277 m_a8_proc_2 - u_a7
       - 1198 y_a7_proc_2 >= -2554
 c374: u_a8 + K_a7_a8 - 1277 m_a7_proc_3 - 1277 m_a8_proc_3 - u_a7
       - 1013 y_a7_proc_3 >= -2554
 c375: u_a8 + K_a7_a8 - 1277 m_a7_proc_0 - 1277 m_a8_proc_0 - u_a7
       - 1098 y_a7_proc_0 >= -2554
 c376: K_a7_a8 + K_a8_a7 = 1
 c377: u_a7 + K_a8_a7 - 1277 m_a7_proc_2 - 1277 m_a8_proc_2 - u_a8
       - 946 y_a8_proc_2 >= -2554
 c378: u_a7 + K_a8_a7 - 1277 m_a7_proc_3 - 1277 m_a8_proc_3 - u_a8
       - 854 y_a8_proc_3 >= -2554
 c379: u_a7 + K_a8_a7 - 1277 m_a7_proc_0 - 1277 m_a8_proc_0 - u_a8
       - 800 y_a8_proc_0 >= -2554
 c380: K_a7_a8 + K_a8_a7 = 1
 c381: u_a9 + K_a7_a9 - 1277 m_a7_proc_2 - 1277 m_a9_proc_2 - u_a7
       - 1198 y_a7_proc_2 >= -2554
 c382: u_a9 + K_a7_a9 - 1277 m_a7_proc_3 - 1277 m_a9_proc_3 - u_a7
       - 1013 y_a7_proc_3 >= -2554
 c383: u_a9 + K_a7_a9 - 1277 m_a7_proc_0 - 1277 m_a9_proc_0 - u_a7
       - 1098 y_a7_proc_0 >= -2554
 c384: K_a7_a9 + K_a9_a7 = 1
 c385: u_a7 + K_a9_a7 - 1277 m_a7_proc_2 - 1277 m_a9_proc_2 - u_a9
       - 411 y_a9_proc_2 >= -2554
 c386: u_a7 + K_a9_a7 - 1277 m_a7_proc_3 - 1277 m_a9_proc_3 - u_a9
       - 844 y_a9_proc_3 >= -2554
 c387: u_a7 + K_a9_a7 - 1277 m_a7_proc_0 - 1277 m_a9_proc_0 - u_a9
       - 1081 y_a9_proc_0 >= -2554
 c388: K_a7_a9 + K_a9_a7 = 1
 c389: u_a9 + K_a8_a9 - 1277 m_a8_proc_2 - 1277 m_a9_proc_2 - u_a8
       - 946 y_a8_proc_2 >= -2554
 c390: u_a9 + K_a8_a9 - 1277 m_a8_proc_3 - 1277 m_a9_proc_3 - u_a8
       - 854 y_a8_proc_3 >= -2554
 c391: u_a9 + K_a8_a9 - 1277 m_a8_proc_0 - 1277 m_a9_proc_0 - u_a8
       - 800 y_a8_proc_0 >= -2554
 c392: K_a8_a9 + K_a9_a8 = 1
 c393: u_a8 + K_a9_a8 - 1277 m_a8_proc_2 - 1277 m_a9_proc_2 - u_a9
       - 411 y_a9_proc_2 >= -2554
 c394: u_a8 + K_a9_a8 - 1277 m_a8_proc_3 - 1277 m_a9_proc_3 - u_a9
       - 844 y_a9_proc_3 >= -2554
 c395: u_a8 + K_a9_a8 - 1277 m_a8_proc_0 - 1277 m_a9_proc_0 - u_a9
       - 1081 y_a9_proc_0 >= -2554
 c396: K_a8_a9 + K_a9_a8 = 1

Bounds
       K_a0_a1 Free
       K_a0_a2 Free
       K_a0_a3 Free
       K_a0_a4 Free
       K_a0_a5 Free
       K_a0_a6 Free
       K_a0_a7 Free
       K_a0_a8 Free
       K_a0_a9 Free
       K_a1_a0 Free
       K_a1_a2 Free
       K_a1_a3 Free
       K_a1_a4 Free
       K_a1_a5 Free
       K_a1_a6 Free
       K_a1_a7 Free
       K_a1_a8 Free
       K_a1_a9 Free
       K_a2_a0 Free
       K_a2_a1 Free
       K_a2_a3 Free
       K_a2_a4 Free
       K_a2_a5 Free
       K_a2_a6 Free
       K_a2_a7 Free
       K_a2_a8 Free
       K_a2_a9 Free
       K_a3_a0 Free
       K_a3_a1 Free
       K_a3_a2 Free
       K_a3_a4 Free
       K_a3_a5 Free
       K_a3_a6 Free
       K_a3_a7 Free
       K_a3_a8 Free
       K_a3_a9 Free
       K_a4_a0 Free
       K_a4_a1 Free
       K_a4_a2 Free
       K_a4_a3 Free
       K_a4_a5 Free
       K_a4_a6 Free
       K_a4_a7 Free
       K_a4_a8 Free
       K_a4_a9 Free
       K_a5_a0 Free
       K_a5_a1 Free
       K_a5_a2 Free
       K_a5_a3 Free
       K_a5_a4 Free
       K_a5_a6 Free
       K_a5_a7 Free
       K_a5_a8 Free
       K_a5_a9 Free
       K_a6_a0 Free
       K_a6_a1 Free
       K_a6_a2 Free
       K_a6_a3 Free
       K_a6_a4 Free
       K_a6_a5 Free
       K_a6_a7 Free
       K_a6_a8 Free
       K_a6_a9 Free
       K_a7_a0 Free
       K_a7_a1 Free
       K_a7_a2 Free
       K_a7_a3 Free
       K_a7_a4 Free
       K_a7_a5 Free
       K_a7_a6 Free
       K_a7_a8 Free
       K_a7_a9 Free
       K_a8_a0 Free
       K_a8_a1 Free
       K_a8_a2 Free
       K_a8_a3 Free
       K_a8_a4 Free
       K_a8_a5 Free
       K_a8_a6 Free
       K_a8_a7 Free
       K_a8_a9 Free
       K_a9_a0 Free
       K_a9_a1 Free
       K_a9_a2 Free
       K_a9_a3 Free
       K_a9_a4 Free
       K_a9_a5 Free
       K_a9_a6 Free
       K_a9_a7 Free
       K_a9_a8 Free
 0 <= m_a0_proc_1 <= 1
 0 <= m_a0_proc_3 <= 1
 0 <= m_a1_proc_1 <= 1
 0 <= m_a1_proc_3 <= 1
 0 <= m_a2_proc_1 <= 1
 0 <= m_a2_proc_2 <= 1
 0 <= m_a2_proc_3 <= 1
 0 <= m_a3_proc_0 <= 1
 0 <= m_a3_proc_2 <= 1
 0 <= m_a3_proc_3 <= 1
 0 <= m_a4_proc_0 <= 1
 0 <= m_a4_proc_1 <= 1
 0 <= m_a4_proc_2 <= 1
 0 <= m_a4_proc_3 <= 1
 0 <= m_a5_proc_1 <= 1
 0 <= m_a5_proc_2 <= 1
 0 <= m_a5_proc_3 <= 1
 0 <= m_a6_proc_0 <= 1
 0 <= m_a6_proc_1 <= 1
 0 <= m_a6_proc_2 <= 1
 0 <= m_a7_proc_0 <= 1
 0 <= m_a7_proc_2 <= 1
 0 <= m_a7_proc_3 <= 1
 0 <= m_a8_proc_0 <= 1
 0 <= m_a8_proc_1 <= 1
 0 <= m_a8_proc_2 <= 1
 0 <= m_a8_proc_3 <= 1
 0 <= m_a9_proc_0 <= 1
 0 <= m_a9_proc_2 <= 1
 0 <= m_a9_proc_3 <= 1

Binaries
 m_a0_proc_1 m_a0_proc_3 m_a1_proc_1 m_a1_proc_3 m_a2_proc_1 m_a2_proc_2
 m_a2_proc_3 m_a3_proc_0 m_a3_proc_2 m_a3_proc_3 m_a4_proc_0 m_a4_proc_1
 m_a4_proc_2 m_a4_proc_3 m_a5_proc_1 m_a5_proc_2 m_a5_proc_3 m_a6_proc_0
 m_a6_proc_1 m_a6_proc_2 m_a7_proc_0 m_a7_proc_2 m_a7_proc_3 m_a8_proc_0
 m_a8_proc_1 m_a8_proc_2 m_a8_proc_3 m_a9_proc_0 m_a9_proc_2 m_a9_proc_3

Generals
 K_a0_a1 K_a0_a2 K_a0_a3 K_a0_a4 K_a0_a5 K_a0_a6 K_a0_a7 K_a0_a8 K_a0_a9 K_a1_a0
 K_a1_a2 K_a1_a3 K_a1_a4 K_a1_a5 K_a1_a6 K_a1_a7 K_a1_a8 K_a1_a9 K_a2_a0 K_a2_a1
 K_a2_a3 K_a2_a4 K_a2_a5 K_a2_a6 K_a2_a7 K_a2_a8 K_a2_a9 K_a3_a0 K_a3_a1 K_a3_a2
 K_a3_a4 K_a3_a5 K_a3_a6 K_a3_a7 K_a3_a8 K_a3_a9 K_a4_a0 K_a4_a1 K_a4_a2 K_a4_a3
 K_a4_a5 K_a4_a6 K_a4_a7 K_a4_a8 K_a4_a9 K_a5_a0 K_a5_a1 K_a5_a2 K_a5_a3 K_a5_a4
 K_a5_a6 K_a5_a7 K_a5_a8 K_a5_a9 K_a6_a0 K_a6_a1 K_a6_a2 K_a6_a3 K_a6_a4 K_a6_a5
 K_a6_a7 K_a6_a8 K_a6_a9 K_a7_a0 K_a7_a1 K_a7_a2 K_a7_a3 K_a7_a4 K_a7_a5 K_a7_a6
 K_a7_a8 K_a7_a9 K_a8_a0 K_a8_a1 K_a8_a2 K_a8_a3 K_a8_a4 K_a8_a5 K_a8_a6 K_a8_a7
 K_a8_a9 K_a9_a0 K_a9_a1 K_a9_a2 K_a9_a3 K_a9_a4 K_a9_a5 K_a9_a6 K_a9_a7 K_a9_a8
End
